networks/zoo_18_57/zoo_18_57-lower.txt
Number of groups: 8
Flow 1: {1 2 0} {2 11 0} 
Flow 2: {2 3 0} {3 12 0} 
Flow 3: {2 4 0} {4 13 0} 
Flow 4: {2 6 0} {6 15 0} 
Flow 5: {2 7 0} {7 16 0} 
Flow 6: {2 8 0} {8 17 0} 
Flow 7: {2 9 0} {9 18 0} 
Flow 8: {2 1 0} {1 10 0} 
Flow 15: {3 2 0} Flow 22: {4 2 0} Flow 28: {4 9 0} Flow 29: {5 4 0} Flow 32: {6 2 0} Flow 38: {7 2 0} Flow 45: {8 2 0} Flow 51: {9 2 0} Flow 54: {9 4 0} Time taken running everything: 1 seconds
