networks/zoo_18_57/zoo_18_57-lower.sol
<?xml version = "1.0" encoding="UTF-8" standalone="yes"?>
<CPLEXSolution version="1.2">
 <header
   problemName="networks/zoo_18_57/zoo_18_57-lower.lp"
   solutionName="incumbent"
   solutionIndex="-1"
   objectiveValue="8"
   solutionTypeValue="3"
   solutionTypeString="primal"
   solutionStatusValue="101"
   solutionStatusString="integer optimal solution"
   solutionMethodString="mip"
   primalFeasible="1"
   dualFeasible="1"
   MIPNodes="0"
   MIPIterations="0"
   writeLevel="3"/>
 <quality
   epInt="1.0000000000000001e-05"
   epRHS="9.9999999999999995e-07"
   maxIntInfeas="0"
   maxPrimalInfeas="0"
   maxX="1"
   maxSlack="1"/>
 <variables>
  <variable name="Y(1,2)" index="1" value="1"/>
  <variable name="Y(2,3)" index="19" value="1"/>
  <variable name="Y(3,4)" index="37" value="1"/>
  <variable name="Y(4,6)" index="56" value="1"/>
  <variable name="Y(5,7)" index="74" value="1"/>
  <variable name="Y(6,8)" index="92" value="1"/>
  <variable name="Y(7,9)" index="110" value="1"/>
  <variable name="Y(8,1)" index="119" value="1"/>
  <variable name="X(1,2,1)" index="969" value="1"/>
  <variable name="X(1,10,8)" index="1033" value="1"/>
  <variable name="X(2,1,8)" index="1090" value="1"/>
  <variable name="X(2,3,2)" index="1141" value="1"/>
  <variable name="X(2,4,3)" index="1199" value="1"/>
  <variable name="X(2,6,4)" index="1257" value="1"/>
  <variable name="X(2,7,5)" index="1315" value="1"/>
  <variable name="X(2,8,6)" index="1373" value="1"/>
  <variable name="X(2,9,7)" index="1431" value="1"/>
  <variable name="X(2,11,1)" index="1482" value="1"/>
  <variable name="X(3,2,15)" index="1553" value="1"/>
  <variable name="X(3,12,2)" index="1597" value="1"/>
  <variable name="X(4,2,22)" index="1674" value="1"/>
  <variable name="X(4,9,28)" index="1737" value="1"/>
  <variable name="X(4,13,3)" index="1769" value="1"/>
  <variable name="X(5,4,29)" index="1852" value="1"/>
  <variable name="X(6,2,32)" index="1912" value="1"/>
  <variable name="X(6,15,4)" index="1941" value="1"/>
  <variable name="X(7,2,38)" index="2032" value="1"/>
  <variable name="X(7,16,5)" index="2056" value="1"/>
  <variable name="X(8,2,45)" index="2153" value="1"/>
  <variable name="X(8,17,6)" index="2171" value="1"/>
  <variable name="X(9,2,51)" index="2273" value="1"/>
  <variable name="X(9,4,54)" index="2333" value="1"/>
  <variable name="X(9,18,7)" index="2343" value="1"/>
 </variables>
</CPLEXSolution>
